benchmarks_CP/INST_49x49/40/inst49x49_40_66.dzn
S=7;
start=[|
-1,	-1,	-1,	-1,	40,	47,	38,	7,	-1,	-1,	19,	2,	49,	-1,	-1,	-1,	-1,	45,	-1,	-1,	-1,	-1,	-1,	48,	-1,	-1,	-1,	-1,	5,	17,	10,	-1,	-1,	35,	4,	-1,	31,	-1,	46,	-1,	-1,	43,	42,	25,	-1,	12,	-1,	-1,	-1|
-1,	-1,	20,	7,	29,	-1,	31,	-1,	-1,	30,	-1,	26,	-1,	-1,	5,	-1,	6,	-1,	11,	-1,	17,	10,	43,	-1,	-1,	-1,	32,	18,	-1,	41,	-1,	36,	-1,	-1,	-1,	-1,	-1,	12,	-1,	-1,	-1,	-1,	34,	-1,	-1,	2,	-1,	-1,	46|
-1,	-1,	-1,	-1,	-1,	-1,	-1,	-1,	-1,	-1,	-1,	-1,	-1,	1,	42,	-1,	-1,	-1,	-1,	35,	48,	-1,	-1,	14,	7,	49,	-1,	-1,	-1,	-1,	29,	15,	28,	-1,	-1,	11,	26,	6,	3,	13,	-1,	34,	38,	-1,	-1,	-1,	36,	-1,	45|
9,	-1,	11,	-1,	-1,	-1,	-1,	-1,	-1,	-1,	-1,	-1,	-1,	-1,	19,	32,	20,	10,	-1,	-1,	16,	28,	26,	35,	-1,	34,	-1,	29,	-1,	39,	-1,	14,	-1,	49,	38,	25,	-1,	-1,	1,	33,	-1,	-1,	-1,	-1,	-1,	-1,	-1,	30,	15|
13,	15,	-1,	-1,	10,	-1,	-1,	-1,	-1,	-1,	-1,	-1,	-1,	-1,	-1,	47,	46,	4,	26,	-1,	34,	-1,	-1,	27,	-1,	-1,	41,	-1,	11,	-1,	-1,	8,	-1,	45,	-1,	-1,	48,	-1,	-1,	42,	-1,	17,	-1,	-1,	-1,	-1,	-1,	-1,	1|
-1,	-1,	37,	-1,	-1,	26,	-1,	-1,	11,	-1,	43,	-1,	38,	-1,	-1,	29,	-1,	-1,	33,	-1,	-1,	-1,	-1,	47,	40,	36,	42,	-1,	-1,	-1,	21,	2,	-1,	-1,	7,	-1,	24,	-1,	-1,	-1,	-1,	28,	-1,	-1,	10,	-1,	-1,	-1,	-1|
27,	5,	-1,	-1,	-1,	35,	45,	-1,	-1,	-1,	-1,	-1,	-1,	-1,	38,	-1,	49,	-1,	-1,	-1,	3,	-1,	16,	-1,	20,	13,	2,	-1,	43,	26,	25,	-1,	-1,	-1,	44,	-1,	-1,	40,	-1,	-1,	-1,	30,	-1,	29,	31,	-1,	-1,	-1,	-1|
-1,	27,	25,	-1,	43,	-1,	-1,	-1,	49,	-1,	-1,	-1,	-1,	-1,	-1,	-1,	-1,	-1,	1,	-1,	15,	-1,	-1,	-1,	10,	-1,	-1,	-1,	38,	-1,	23,	24,	6,	41,	-1,	44,	16,	47,	7,	35,	46,	-1,	-1,	-1,	4,	42,	39,	-1,	33|
-1,	-1,	15,	-1,	30,	10,	-1,	20,	-1,	-1,	16,	-1,	9,	-1,	46,	-1,	-1,	-1,	-1,	-1,	-1,	-1,	29,	-1,	-1,	-1,	34,	-1,	-1,	-1,	39,	-1,	12,	-1,	-1,	-1,	-1,	-1,	-1,	-1,	-1,	2,	-1,	28,	-1,	45,	5,	22,	-1|
-1,	42,	-1,	-1,	-1,	-1,	-1,	-1,	43,	41,	39,	-1,	-1,	17,	-1,	16,	-1,	20,	-1,	-1,	-1,	-1,	-1,	-1,	-1,	26,	-1,	-1,	-1,	-1,	-1,	48,	-1,	-1,	30,	37,	-1,	10,	-1,	45,	-1,	29,	-1,	-1,	-1,	-1,	-1,	-1,	35|
-1,	20,	5,	-1,	-1,	16,	46,	19,	-1,	-1,	33,	-1,	-1,	-1,	-1,	14,	42,	49,	-1,	45,	-1,	-1,	1,	-1,	22,	44,	6,	-1,	-1,	-1,	31,	-1,	29,	-1,	-1,	-1,	39,	-1,	-1,	-1,	12,	-1,	7,	-1,	-1,	37,	-1,	-1,	2|
-1,	-1,	-1,	2,	26,	-1,	-1,	36,	-1,	-1,	-1,	27,	-1,	-1,	-1,	39,	-1,	-1,	-1,	22,	-1,	38,	-1,	7,	46,	17,	15,	-1,	-1,	-1,	5,	1,	-1,	34,	-1,	24,	-1,	-1,	20,	-1,	21,	-1,	-1,	-1,	-1,	6,	-1,	-1,	-1|
-1,	-1,	-1,	-1,	-1,	17,	-1,	-1,	46,	40,	28,	-1,	-1,	38,	-1,	-1,	-1,	8,	-1,	3,	11,	-1,	37,	9,	-1,	16,	-1,	-1,	47,	-1,	-1,	-1,	36,	-1,	20,	-1,	-1,	-1,	-1,	43,	-1,	-1,	-1,	-1,	-1,	1,	15,	-1,	-1|
-1,	-1,	8,	-1,	-1,	-1,	-1,	-1,	-1,	29,	-1,	-1,	-1,	-1,	-1,	-1,	-1,	-1,	-1,	-1,	-1,	-1,	45,	39,	23,	40,	-1,	19,	2,	-1,	-1,	-1,	-1,	-1,	-1,	28,	18,	38,	-1,	-1,	5,	15,	11,	21,	-1,	46,	27,	-1,	25|
-1,	46,	-1,	-1,	-1,	-1,	34,	-1,	-1,	7,	-1,	12,	-1,	-1,	-1,	1,	-1,	-1,	22,	24,	-1,	13,	-1,	28,	-1,	-1,	-1,	-1,	27,	-1,	45,	-1,	-1,	48,	-1,	29,	38,	-1,	-1,	18,	-1,	36,	35,	-1,	-1,	-1,	31,	-1,	-1|
-1,	-1,	-1,	-1,	32,	-1,	-1,	27,	19,	13,	38,	42,	31,	-1,	-1,	41,	-1,	33,	-1,	-1,	-1,	-1,	48,	-1,	26,	25,	1,	-1,	-1,	-1,	8,	-1,	23,	5,	37,	46,	-1,	-1,	-1,	7,	-1,	-1,	36,	-1,	15,	39,	17,	-1,	-1|
-1,	-1,	-1,	-1,	7,	5,	18,	-1,	-1,	-1,	49,	23,	-1,	-1,	-1,	35,	-1,	-1,	-1,	-1,	19,	-1,	-1,	-1,	37,	-1,	-1,	-1,	36,	-1,	-1,	-1,	38,	-1,	22,	-1,	13,	48,	27,	-1,	-1,	-1,	4,	12,	6,	10,	-1,	-1,	28|
29,	-1,	39,	-1,	-1,	-1,	-1,	-1,	-1,	22,	2,	-1,	-1,	11,	-1,	-1,	-1,	-1,	48,	4,	-1,	-1,	-1,	-1,	21,	-1,	-1,	-1,	7,	20,	-1,	42,	16,	-1,	-1,	30,	-1,	-1,	-1,	34,	-1,	40,	-1,	5,	-1,	-1,	33,	41,	-1|
-1,	-1,	-1,	-1,	-1,	-1,	42,	37,	29,	-1,	-1,	-1,	-1,	-1,	43,	-1,	13,	-1,	-1,	27,	-1,	19,	-1,	6,	-1,	9,	12,	-1,	18,	-1,	17,	-1,	-1,	1,	41,	22,	33,	-1,	21,	-1,	-1,	-1,	47,	-1,	-1,	7,	30,	-1,	-1|
2,	-1,	-1,	-1,	-1,	-1,	-1,	-1,	-1,	-1,	-1,	43,	-1,	-1,	11,	3,	-1,	-1,	44,	-1,	46,	7,	-1,	-1,	14,	32,	27,	-1,	24,	-1,	19,	-1,	-1,	-1,	31,	-1,	-1,	-1,	-1,	-1,	-1,	-1,	-1,	-1,	-1,	13,	16,	38,	48|
-1,	-1,	43,	-1,	22,	6,	36,	34,	-1,	-1,	46,	-1,	-1,	-1,	-1,	-1,	37,	-1,	31,	-1,	7,	-1,	-1,	-1,	41,	18,	44,	-1,	-1,	-1,	-1,	-1,	4,	-1,	32,	8,	-1,	35,	-1,	5,	10,	-1,	20,	-1,	25,	-1,	-1,	-1,	-1|
-1,	2,	-1,	29,	9,	-1,	25,	-1,	-1,	-1,	32,	30,	-1,	-1,	26,	7,	-1,	-1,	17,	-1,	20,	49,	-1,	18,	4,	-1,	-1,	-1,	-1,	-1,	-1,	-1,	-1,	-1,	5,	48,	-1,	-1,	-1,	-1,	16,	42,	22,	-1,	-1,	15,	-1,	13,	-1|
26,	-1,	13,	44,	-1,	28,	-1,	43,	-1,	49,	7,	17,	-1,	-1,	-1,	-1,	41,	-1,	-1,	-1,	36,	16,	40,	-1,	-1,	-1,	35,	-1,	-1,	32,	-1,	-1,	-1,	-1,	1,	45,	9,	-1,	-1,	-1,	-1,	11,	33,	-1,	-1,	-1,	14,	42,	29|
-1,	-1,	45,	27,	38,	46,	39,	-1,	-1,	2,	-1,	-1,	26,	-1,	-1,	-1,	44,	-1,	16,	-1,	-1,	-1,	-1,	-1,	6,	14,	-1,	-1,	-1,	7,	-1,	-1,	30,	10,	11,	-1,	-1,	17,	8,	-1,	15,	-1,	32,	36,	-1,	-1,	12,	1,	-1|
-1,	-1,	-1,	16,	17,	-1,	20,	5,	36,	-1,	-1,	-1,	40,	42,	-1,	-1,	-1,	15,	39,	-1,	-1,	46,	22,	-1,	-1,	-1,	-1,	-1,	-1,	-1,	-1,	-1,	-1,	13,	-1,	43,	27,	26,	-1,	30,	-1,	14,	-1,	-1,	-1,	-1,	2,	-1,	-1|
-1,	-1,	-1,	40,	-1,	-1,	14,	-1,	16,	9,	11,	-1,	-1,	-1,	10,	-1,	-1,	34,	-1,	-1,	-1,	-1,	-1,	17,	-1,	-1,	-1,	44,	-1,	-1,	46,	3,	22,	6,	-1,	18,	-1,	-1,	49,	-1,	-1,	13,	-1,	-1,	19,	31,	20,	28,	-1|
-1,	-1,	47,	-1,	-1,	-1,	5,	-1,	41,	38,	-1,	24,	-1,	39,	-1,	-1,	-1,	-1,	-1,	-1,	23,	36,	13,	-1,	34,	43,	-1,	-1,	16,	15,	40,	26,	42,	19,	33,	-1,	-1,	7,	12,	28,	31,	-1,	-1,	45,	-1,	35,	8,	44,	4|
-1,	-1,	31,	30,	24,	37,	49,	-1,	23,	10,	14,	-1,	-1,	4,	-1,	43,	-1,	-1,	-1,	13,	-1,	26,	-1,	15,	-1,	-1,	11,	-1,	21,	-1,	36,	-1,	17,	8,	9,	6,	5,	-1,	41,	39,	-1,	33,	46,	-1,	-1,	25,	-1,	27,	40|
-1,	-1,	-1,	35,	-1,	-1,	-1,	-1,	-1,	-1,	-1,	-1,	-1,	-1,	48,	13,	30,	-1,	42,	-1,	-1,	-1,	-1,	-1,	11,	8,	-1,	5,	15,	16,	38,	-1,	-1,	28,	-1,	-1,	-1,	-1,	-1,	-1,	45,	-1,	-1,	-1,	1,	47,	-1,	32,	36|
48,	-1,	46,	-1,	-1,	-1,	11,	-1,	20,	-1,	47,	-1,	23,	-1,	-1,	18,	8,	6,	-1,	-1,	-1,	-1,	-1,	4,	-1,	38,	-1,	-1,	-1,	-1,	-1,	-1,	-1,	-1,	-1,	-1,	-1,	-1,	-1,	40,	-1,	35,	10,	31,	34,	33,	-1,	-1,	-1|
22,	-1,	29,	-1,	-1,	-1,	-1,	14,	-1,	-1,	42,	28,	-1,	7,	-1,	46,	24,	-1,	34,	40,	-1,	-1,	6,	41,	-1,	-1,	-1,	-1,	-1,	-1,	-1,	30,	-1,	4,	-1,	-1,	-1,	11,	23,	19,	-1,	-1,	-1,	15,	-1,	26,	49,	39,	-1|
43,	-1,	27,	-1,	-1,	-1,	-1,	25,	-1,	-1,	3,	16,	-1,	-1,	-1,	-1,	32,	-1,	47,	-1,	33,	-1,	15,	-1,	35,	-1,	-1,	-1,	-1,	-1,	-1,	-1,	-1,	-1,	-1,	-1,	-1,	39,	-1,	-1,	-1,	46,	-1,	-1,	-1,	8,	42,	-1,	30|
-1,	-1,	-1,	9,	-1,	-1,	-1,	40,	-1,	-1,	-1,	-1,	5,	31,	-1,	20,	-1,	35,	-1,	43,	-1,	1,	49,	-1,	13,	47,	-1,	-1,	-1,	23,	-1,	11,	-1,	-1,	-1,	42,	-1,	-1,	-1,	8,	-1,	-1,	-1,	-1,	-1,	-1,	-1,	-1,	-1|
45,	-1,	-1,	-1,	41,	-1,	-1,	-1,	-1,	-1,	36,	-1,	6,	-1,	-1,	5,	-1,	17,	23,	-1,	-1,	-1,	-1,	10,	44,	27,	46,	42,	-1,	34,	-1,	39,	-1,	-1,	-1,	21,	47,	25,	-1,	24,	-1,	-1,	-1,	2,	20,	16,	29,	37,	11|
-1,	-1,	-1,	-1,	-1,	-1,	15,	-1,	9,	-1,	8,	11,	-1,	35,	45,	26,	19,	3,	14,	10,	37,	-1,	20,	-1,	-1,	12,	-1,	31,	46,	-1,	49,	17,	33,	32,	-1,	34,	-1,	-1,	-1,	-1,	-1,	-1,	5,	-1,	-1,	-1,	41,	6,	7|
-1,	-1,	26,	-1,	28,	-1,	-1,	-1,	-1,	11,	-1,	-1,	-1,	-1,	6,	-1,	-1,	-1,	5,	-1,	-1,	-1,	-1,	-1,	12,	21,	-1,	-1,	10,	8,	20,	38,	-1,	-1,	-1,	-1,	43,	24,	-1,	16,	48,	9,	1,	-1,	-1,	23,	-1,	-1,	-1|
-1,	3,	-1,	-1,	20,	-1,	-1,	-1,	21,	-1,	-1,	7,	2,	26,	25,	38,	45,	12,	40,	-1,	-1,	47,	-1,	-1,	-1,	-1,	-1,	-1,	48,	-1,	-1,	-1,	-1,	-1,	-1,	-1,	6,	-1,	34,	-1,	42,	23,	-1,	-1,	-1,	18,	-1,	-1,	17|
-1,	1,	12,	-1,	-1,	38,	-1,	10,	31,	16,	-1,	-1,	20,	-1,	21,	17,	-1,	-1,	-1,	11,	26,	23,	-1,	-1,	-1,	-1,	-1,	-1,	-1,	-1,	34,	-1,	-1,	2,	42,	-1,	8,	-1,	-1,	-1,	40,	49,	-1,	-1,	-1,	9,	28,	-1,	-1|
30,	39,	35,	-1,	-1,	23,	47,	49,	17,	-1,	13,	-1,	-1,	-1,	-1,	-1,	-1,	-1,	-1,	48,	-1,	-1,	-1,	-1,	-1,	-1,	-1,	-1,	1,	6,	-1,	40,	-1,	-1,	27,	-1,	44,	-1,	11,	-1,	-1,	10,	45,	16,	7,	22,	43,	-1,	-1|
-1,	10,	-1,	31,	-1,	8,	-1,	39,	-1,	-1,	-1,	-1,	-1,	-1,	22,	-1,	1,	-1,	-1,	-1,	42,	11,	18,	-1,	-1,	20,	-1,	-1,	-1,	24,	-1,	16,	47,	-1,	14,	38,	35,	28,	-1,	-1,	-1,	-1,	40,	27,	-1,	4,	-1,	-1,	-1|
-1,	16,	-1,	-1,	-1,	-1,	29,	42,	-1,	-1,	-1,	3,	15,	28,	-1,	-1,	-1,	47,	35,	20,	-1,	-1,	7,	-1,	-1,	-1,	-1,	27,	12,	-1,	-1,	-1,	-1,	9,	-1,	17,	-1,	-1,	45,	-1,	-1,	-1,	-1,	-1,	-1,	30,	38,	-1,	14|
33,	-1,	42,	-1,	-1,	-1,	-1,	-1,	14,	-1,	4,	38,	-1,	-1,	-1,	-1,	36,	13,	-1,	-1,	31,	-1,	-1,	-1,	-1,	22,	-1,	-1,	-1,	-1,	-1,	7,	39,	-1,	-1,	27,	-1,	46,	-1,	2,	-1,	-1,	3,	-1,	12,	29,	24,	-1,	-1|
8,	45,	30,	36,	15,	9,	-1,	4,	-1,	-1,	-1,	32,	-1,	-1,	-1,	48,	-1,	11,	-1,	-1,	12,	-1,	46,	3,	1,	35,	13,	-1,	20,	-1,	-1,	31,	-1,	-1,	25,	-1,	-1,	-1,	-1,	37,	-1,	5,	-1,	-1,	-1,	49,	34,	-1,	-1|
35,	23,	-1,	19,	-1,	43,	-1,	8,	39,	-1,	29,	-1,	36,	-1,	-1,	-1,	5,	-1,	-1,	-1,	30,	20,	-1,	32,	-1,	-1,	31,	11,	13,	27,	-1,	12,	10,	24,	-1,	-1,	-1,	9,	-1,	38,	28,	-1,	-1,	-1,	21,	-1,	-1,	-1,	-1|
12,	-1,	38,	-1,	-1,	-1,	21,	-1,	-1,	-1,	6,	-1,	-1,	16,	13,	31,	-1,	-1,	2,	36,	9,	-1,	47,	-1,	-1,	24,	5,	-1,	-1,	40,	48,	19,	18,	-1,	43,	-1,	-1,	15,	-1,	-1,	-1,	41,	-1,	35,	-1,	28,	-1,	7,	37|
25,	-1,	-1,	-1,	6,	-1,	-1,	38,	-1,	-1,	-1,	-1,	-1,	-1,	35,	42,	-1,	27,	24,	-1,	-1,	-1,	19,	36,	-1,	-1,	-1,	-1,	9,	-1,	-1,	-1,	-1,	-1,	-1,	16,	-1,	22,	13,	-1,	-1,	-1,	44,	4,	-1,	-1,	-1,	-1,	39|
37,	-1,	-1,	-1,	-1,	-1,	-1,	-1,	-1,	35,	10,	40,	19,	43,	-1,	-1,	22,	29,	20,	25,	-1,	12,	33,	30,	-1,	-1,	14,	-1,	4,	-1,	-1,	32,	15,	-1,	-1,	26,	-1,	-1,	-1,	-1,	-1,	-1,	-1,	-1,	17,	24,	-1,	-1,	-1|
-1,	-1,	-1,	-1,	-1,	31,	-1,	-1,	-1,	34,	-1,	-1,	-1,	27,	41,	-1,	-1,	-1,	-1,	-1,	-1,	-1,	-1,	40,	-1,	-1,	-1,	4,	-1,	-1,	1,	-1,	-1,	-1,	-1,	-1,	-1,	33,	-1,	-1,	23,	-1,	13,	-1,	-1,	-1,	-1,	15,	-1|
49,	-1,	-1,	47,	-1,	29,	2,	23,	13,	-1,	-1,	-1,	42,	-1,	-1,	-1,	28,	-1,	6,	37,	40,	-1,	10,	21,	-1,	-1,	-1,	7,	-1,	-1,	14,	-1,	-1,	26,	-1,	-1,	-1,	43,	24,	11,	19,	-1,	-1,	-1,	30,	-1,	25,	-1,	31|];
