sudoku-ls/benchmarks_LEQ/INST_49x49/40/inst49x49_40_66.txt
7
1
-1	33	-1	6	40	-1	-1	-1	-1	37	-1	-1	49	41	-1	-1	-1	45	-1	-1	14	9	11	-1	-1	-1	24	1	-1	-1	-1	13	-1	-1	4	-1	31	-1	-1	-1	29	-1	42	-1	26	-1	-1	3	22
16	25	-1	-1	-1	14	-1	-1	45	-1	15	-1	-1	-1	-1	22	-1	24	-1	-1	17	-1	43	-1	-1	-1	-1	-1	-1	41	37	-1	27	-1	-1	-1	49	-1	-1	-1	-1	-1	34	-1	28	2	13	-1	46
-1	44	-1	-1	-1	-1	-1	-1	-1	-1	-1	25	-1	-1	-1	-1	31	-1	-1	35	-1	-1	17	-1	7	-1	-1	-1	19	33	-1	-1	28	-1	-1	-1	26	6	-1	-1	20	34	-1	-1	-1	-1	36	40	45
9	-1	11	-1	-1	-1	-1	12	-1	-1	22	21	-1	5	19	-1	-1	-1	-1	2	16	-1	-1	35	-1	34	-1	-1	-1	-1	-1	14	-1	-1	-1	25	7	-1	1	-1	-1	-1	-1	37	-1	27	-1	-1	-1
13	-1	3	-1	-1	-1	30	-1	-1	-1	20	35	-1	29	40	-1	-1	-1	-1	-1	-1	6	44	-1	25	-1	-1	-1	11	31	32	8	-1	-1	12	36	-1	2	-1	-1	-1	17	43	49	-1	-1	-1	21	-1
-1	49	37	8	-1	-1	32	-1	-1	-1	-1	31	38	-1	-1	-1	39	25	-1	12	-1	-1	23	47	-1	-1	42	-1	-1	-1	-1	-1	1	-1	7	-1	24	18	-1	27	9	-1	-1	-1	10	-1	-1	-1	-1
27	-1	28	-1	-1	35	45	17	-1	-1	-1	46	33	14	38	-1	-1	9	-1	-1	-1	37	-1	12	-1	13	-1	-1	43	-1	25	34	48	-1	-1	-1	-1	-1	-1	10	41	-1	39	-1	31	-1	4	11	47
-1	-1	-1	-1	-1	22	37	18	49	3	45	-1	8	-1	-1	-1	40	19	1	5	-1	21	12	-1	10	-1	30	-1	38	-1	-1	24	-1	41	-1	44	16	-1	7	35	46	32	-1	17	-1	42	39	20	-1
-1	38	-1	21	30	-1	-1	20	-1	42	16	-1	9	-1	46	25	48	31	36	6	-1	35	29	-1	47	-1	-1	24	32	-1	-1	49	-1	-1	17	-1	-1	1	-1	26	-1	2	-1	-1	43	-1	-1	-1	18
-1	-1	-1	-1	-1	1	-1	32	-1	-1	39	-1	-1	-1	-1	-1	-1	-1	-1	-1	18	-1	-1	-1	5	26	33	-1	-1	-1	-1	48	-1	-1	-1	-1	11	-1	22	-1	-1	29	31	-1	44	-1	-1	23	-1
-1	-1	-1	11	-1	16	46	-1	-1	24	33	15	4	-1	17	-1	-1	49	13	-1	-1	-1	-1	-1	22	-1	6	-1	40	10	-1	18	-1	-1	-1	-1	39	-1	-1	-1	12	-1	-1	38	41	37	-1	-1	-1
-1	-1	-1	2	26	44	-1	36	47	-1	25	27	11	10	-1	39	-1	-1	-1	-1	32	-1	-1	7	-1	-1	-1	-1	45	-1	5	-1	-1	-1	35	-1	42	13	20	-1	21	-1	49	-1	29	-1	-1	-1	-1
39	-1	-1	-1	-1	17	-1	26	-1	-1	-1	5	22	38	-1	24	2	-1	-1	3	11	-1	-1	9	49	16	18	-1	47	-1	42	-1	36	33	20	31	-1	-1	6	43	27	-1	30	32	-1	-1	-1	19	-1
-1	-1	-1	-1	-1	-1	48	30	35	29	-1	-1	-1	-1	34	-1	-1	-1	-1	41	10	-1	45	39	-1	-1	20	-1	2	-1	16	-1	-1	-1	3	-1	18	-1	-1	-1	-1	-1	-1	21	47	-1	-1	24	-1
15	-1	-1	-1	-1	20	34	-1	-1	7	-1	12	-1	-1	-1	-1	47	39	22	-1	-1	13	5	-1	8	-1	49	17	-1	-1	-1	25	-1	48	10	-1	-1	-1	-1	18	-1	-1	-1	-1	2	-1	31	9	32
44	21	-1	28	32	3	-1	27	19	-1	-1	-1	-1	9	20	-1	-1	-1	-1	34	49	-1	-1	-1	-1	-1	-1	30	29	-1	8	-1	23	-1	-1	-1	-1	-1	-1	7	2	16	36	22	-1	39	17	-1	24
-1	-1	-1	-1	-1	5	18	-1	1	-1	-1	-1	-1	-1	30	35	-1	-1	-1	-1	-1	-1	-1	-1	37	2	-1	40	-1	-1	-1	-1	-1	39	-1	3	-1	48	27	31	14	20	-1	-1	6	-1	21	-1	-1
29	19	39	-1	-1	27	-1	35	18	-1	-1	10	-1	-1	-1	9	-1	38	48	-1	-1	-1	31	-1	-1	46	47	3	-1	-1	-1	-1	16	-1	-1	-1	-1	-1	-1	34	-1	-1	-1	-1	-1	-1	33	41	49
-1	-1	-1	-1	14	-1	42	37	-1	-1	-1	-1	-1	-1	-1	40	-1	-1	45	-1	-1	19	35	-1	-1	-1	12	20	-1	2	-1	-1	26	-1	41	-1	-1	-1	21	15	-1	4	-1	46	3	7	30	34	8
2	-1	33	-1	-1	-1	-1	-1	-1	8	-1	-1	39	-1	-1	3	12	-1	-1	26	-1	-1	-1	-1	14	-1	-1	-1	24	-1	-1	-1	34	-1	-1	-1	-1	-1	-1	17	25	47	-1	18	-1	13	-1	-1	-1
-1	13	43	-1	-1	-1	-1	34	-1	-1	46	-1	-1	-1	2	21	37	23	-1	-1	7	-1	-1	16	-1	-1	44	-1	-1	49	-1	-1	4	-1	32	8	19	-1	-1	-1	-1	-1	20	40	25	-1	-1	26	-1
10	2	21	-1	-1	36	25	-1	-1	-1	32	-1	1	-1	-1	-1	-1	40	-1	31	-1	49	24	18	-1	3	8	12	-1	14	43	-1	-1	38	-1	-1	46	37	-1	-1	-1	42	-1	47	39	-1	-1	13	-1
-1	-1	13	44	-1	-1	-1	-1	-1	-1	-1	-1	-1	-1	18	12	-1	21	-1	-1	36	-1	40	19	2	10	-1	-1	39	32	27	-1	31	-1	-1	-1	-1	20	-1	-1	-1	11	-1	-1	5	48	-1	-1	29
-1	35	45	27	38	46	39	31	-1	2	-1	-1	-1	-1	-1	19	-1	-1	-1	-1	-1	-1	21	-1	-1	-1	37	-1	-1	-1	-1	-1	-1	-1	11	47	40	-1	-1	3	-1	22	-1	-1	-1	-1	-1	-1	43
-1	32	41	-1	-1	-1	-1	-1	-1	-1	-1	6	40	42	-1	-1	-1	-1	-1	-1	-1	-1	22	1	-1	31	-1	-1	25	-1	-1	-1	49	13	-1	-1	-1	-1	29	30	34	-1	37	3	11	21	-1	10	-1
-1	-1	-1	40	-1	-1	-1	-1	16	9	-1	-1	35	-1	10	-1	-1	-1	-1	42	-1	-1	-1	17	-1	-1	7	-1	-1	-1	-1	-1	-1	6	-1	18	-1	-1	-1	-1	-1	-1	-1	26	-1	31	-1	-1	-1
-1	22	-1	-1	3	-1	5	-1	41	-1	37	24	-1	-1	-1	6	-1	32	-1	-1	-1	-1	-1	20	34	-1	-1	-1	16	15	-1	26	-1	-1	-1	-1	-1	-1	12	28	-1	-1	17	-1	-1	-1	-1	-1	4
-1	-1	-1	30	24	-1	-1	-1	-1	10	14	-1	-1	-1	1	-1	-1	-1	3	-1	2	-1	-1	15	28	-1	-1	-1	21	-1	36	-1	-1	8	-1	-1	-1	-1	-1	-1	38	33	-1	7	-1	25	18	-1	-1
-1	-1	-1	-1	2	33	3	-1	-1	46	-1	-1	-1	-1	-1	-1	30	-1	-1	-1	-1	-1	-1	23	-1	-1	19	-1	15	-1	-1	-1	-1	-1	-1	9	-1	-1	14	-1	45	-1	-1	-1	-1	-1	-1	32	-1
48	26	-1	42	-1	-1	-1	-1	-1	-1	-1	39	23	22	16	-1	8	6	-1	15	-1	-1	-1	4	-1	-1	-1	45	-1	43	-1	27	13	-1	-1	-1	2	-1	-1	40	30	-1	-1	31	-1	33	19	-1	-1
-1	-1	-1	-1	8	-1	16	14	-1	-1	-1	28	45	7	27	46	24	-1	-1	-1	1	-1	6	-1	-1	-1	-1	-1	-1	18	47	30	3	-1	-1	-1	-1	-1	-1	-1	44	38	-1	-1	35	-1	-1	39	9
43	-1	-1	-1	23	-1	17	-1	38	-1	3	16	48	-1	28	-1	-1	-1	-1	-1	-1	22	-1	-1	-1	-1	26	-1	-1	-1	-1	-1	-1	20	45	-1	-1	-1	-1	6	36	-1	-1	14	-1	8	-1	-1	-1
-1	-1	-1	9	36	21	-1	40	30	32	17	41	-1	31	39	20	-1	35	12	43	22	1	49	-1	13	-1	16	-1	14	23	26	-1	-1	-1	6	-1	-1	-1	-1	-1	33	7	-1	-1	27	38	45	46	3
45	-1	7	32	41	-1	1	-1	15	-1	-1	18	6	-1	-1	-1	-1	-1	23	9	-1	40	-1	10	44	-1	-1	42	35	-1	-1	39	-1	-1	-1	-1	47	-1	-1	24	-1	26	-1	-1	20	-1	-1	37	11
38	-1	-1	-1	-1	25	-1	2	-1	21	8	-1	24	35	45	26	-1	-1	-1	10	-1	30	-1	43	36	-1	48	31	46	42	-1	-1	33	-1	-1	-1	28	-1	16	-1	-1	18	-1	-1	-1	-1	-1	6	7
-1	-1	26	-1	-1	-1	-1	-1	27	11	-1	-1	-1	30	6	-1	-1	14	-1	-1	39	-1	-1	-1	-1	-1	-1	-1	10	-1	-1	38	-1	-1	49	-1	-1	24	-1	-1	-1	-1	1	42	-1	23	-1	31	13
-1	3	-1	-1	-1	-1	-1	-1	21	1	-1	7	-1	-1	-1	-1	45	-1	-1	30	-1	-1	14	-1	-1	28	10	16	-1	37	33	5	-1	44	13	-1	6	31	34	-1	-1	-1	-1	-1	36	18	-1	35	-1
5	-1	-1	15	13	-1	-1	10	-1	16	-1	47	-1	-1	-1	17	7	-1	27	-1	-1	-1	4	46	-1	-1	-1	6	-1	22	-1	-1	-1	-1	-1	-1	8	29	-1	14	-1	-1	-1	-1	-1	-1	28	-1	-1
-1	39	35	-1	-1	-1	-1	49	-1	25	-1	-1	46	32	-1	2	-1	-1	-1	-1	8	-1	41	-1	-1	-1	-1	34	1	6	-1	-1	-1	31	-1	12	44	-1	-1	-1	-1	10	-1	-1	-1	22	43	-1	-1
21	-1	6	31	25	8	-1	-1	5	-1	-1	-1	-1	36	22	-1	-1	-1	46	-1	-1	11	-1	49	-1	20	-1	-1	-1	-1	15	-1	-1	29	14	-1	-1	28	30	-1	-1	-1	-1	-1	-1	4	37	-1	34
36	-1	-1	18	44	-1	29	-1	-1	-1	-1	3	15	-1	-1	49	34	47	35	-1	-1	-1	-1	-1	-1	-1	39	27	-1	25	11	4	-1	-1	-1	-1	41	5	45	22	-1	-1	-1	10	8	-1	-1	48	-1
33	-1	42	-1	-1	-1	-1	6	14	-1	-1	-1	-1	-1	-1	10	36	-1	-1	16	-1	-1	-1	5	19	-1	40	-1	-1	-1	-1	-1	-1	-1	-1	27	25	-1	47	-1	1	-1	-1	20	-1	-1	24	-1	-1
-1	-1	30	36	-1	-1	26	4	7	47	41	32	-1	-1	23	-1	16	-1	-1	-1	-1	2	-1	3	1	35	-1	-1	-1	-1	-1	-1	44	17	25	-1	21	-1	40	-1	18	5	27	33	38	49	34	43	-1
-1	-1	22	19	-1	43	40	-1	39	-1	-1	-1	36	-1	-1	-1	-1	-1	49	17	30	-1	-1	32	18	37	-1	-1	13	-1	-1	-1	-1	24	-1	7	4	-1	42	38	28	-1	-1	-1	-1	-1	-1	47	-1
12	-1	38	33	42	-1	-1	-1	3	-1	-1	-1	30	-1	-1	31	14	-1	-1	36	-1	-1	-1	44	-1	24	-1	-1	49	40	-1	-1	-1	-1	43	1	34	-1	-1	-1	-1	-1	-1	-1	45	-1	-1	7	37
25	28	-1	-1	-1	7	-1	-1	-1	-1	-1	-1	-1	-1	35	-1	33	27	24	47	21	-1	-1	36	-1	-1	-1	-1	-1	-1	30	-1	11	-1	-1	16	45	22	-1	-1	-1	-1	44	-1	-1	-1	-1	-1	39
-1	-1	-1	-1	-1	-1	13	-1	-1	-1	-1	40	19	43	-1	-1	22	-1	-1	-1	38	12	-1	30	-1	6	-1	49	-1	45	-1	-1	15	-1	-1	26	36	8	-1	-1	-1	-1	-1	-1	-1	-1	-1	18	-1
-1	-1	-1	3	5	-1	44	-1	-1	-1	26	-1	-1	27	-1	-1	43	-1	-1	32	-1	48	38	40	-1	-1	-1	-1	-1	36	-1	37	-1	16	-1	35	30	-1	-1	47	-1	6	13	11	22	20	46	-1	-1
-1	34	-1	-1	-1	-1	-1	23	13	-1	-1	-1	-1	18	4	-1	28	-1	-1	37	-1	-1	-1	-1	-1	41	45	7	-1	-1	14	22	-1	26	46	-1	-1	-1	-1	11	-1	39	-1	-1	-1	-1	25	-1	31
49 
14 11 26 1
33 33 34 44
35 18 6 8
10 41 28 14
3 46 18 44
4 29 19 24
10 31 48 33
25 15 7 19
25 27 19 26
4 18 1 31
28 27 32 16
31 6 14 4
27 23 28 20
39 4 43 38
32 23 49 10
39 44 19 18
24 38 25 5
29 22 4 5
45 32 49 41
18 30 7 25
45 7 38 15
35 41 43 28
26 37 44 2
10 3 43 14
37 15 1 44
24 13 28 22
21 49 49 5
29 34 13 11
26 19 6 16
18 36 49 45
20 35 29 42
19 13 49 37
27 35 36 36
9 27 23 5
30 42 23 27
19 12 18 15
32 39 14 33
46 8 10 20
40 8 25 19
38 41 41 11
31 24 24 28
5 40 41 8
36 37 19 15
36 11 49 16
18 24 27 44
34 27 37 1
8 38 2 8
2 14 36 41
27 15 19 3
